8229
26, 47, 27, 28, 12, 25, 4, 6, 15, 5, 48, 24, 37, 38, 40, 39, 36, 1, 22, 18, 3, 17, 31, 21, 42, 2, 7, 30, 23, 20, 29, 50, 16, 46, 44, 34, 35, 49, 32, 45, 19, 41, 8, 10, 9, 43, 33, 51, 11, 52, 13, 14
